
Gurobi 11.0.3 (linux64) logging started Thu Nov 21 17:30:16 2024

Set parameter LogFile to value "/home/yihong/Coding/OR_SUC/SUC_results_bigM100000_thread4/case24_ieee_rts_theta0.5_epsilon0.025_gurobi_seed50000_num_gen100_N_WDR100_load_scaling_factor1_exact_T24quadra_cost.txt"
Set parameter TimeLimit to value 3600
Gurobi Optimizer version 11.0.3 build v11.0.3rc0 (linux64 - "Ubuntu 20.04.6 LTS")

CPU model: AMD EPYC 7532 32-Core Processor, instruction set [SSE2|AVX|AVX2]
Thread count: 64 physical cores, 128 logical processors, using up to 4 threads

Optimize a model with 52043 rows, 29961 columns and 712938 nonzeros
Model fingerprint: 0x79c5d96a
Model has 2400 quadratic constraints
Variable types: 27461 continuous, 2500 integer (2500 binary)
Coefficient statistics:
  Matrix range     [1e-04, 1e+05]
  QMatrix range    [2e-03, 8e-03]
  QLMatrix range   [2e-01, 6e+01]
  Objective range  [1e+00, 1e+00]
  Bounds range     [1e+00, 1e+00]
  RHS range        [1e+00, 1e+05]
Presolve removed 42114 rows and 12956 columns
Presolve time: 0.24s
Presolved: 9929 rows, 17005 columns, 63455 nonzeros
Presolved model has 2400 quadratic constraint(s)
Variable types: 14551 continuous, 2454 integer (2454 binary)

Root relaxation: objective 7.323785e+04, 8340 iterations, 0.21 seconds (0.30 work units)

    Nodes    |    Current Node    |     Objective Bounds      |     Work
 Expl Unexpl |  Obj  Depth IntInf | Incumbent    BestBd   Gap | It/Node Time

     0     0 73237.8524    0   27          - 73237.8524      -     -    0s
     0     0 379480.799    0  674          - 379480.799      -     -    1s
     0     0 425393.663    0  633          - 425393.663      -     -    1s
     0     0 674118.301    0  630          - 674118.301      -     -    1s
     0     0 674161.923    0  440          - 674161.923      -     -    1s
     0     0 674645.572    0  308          - 674645.572      -     -    1s
     0     0 674667.827    0  309          - 674667.827      -     -    1s
     0     0 674732.010    0  306          - 674732.010      -     -    1s
     0     0 674755.037    0  306          - 674755.037      -     -    1s
     0     2 674755.037    0  306          - 674755.037      -     -    2s
H  384   260                    675207.72380 674842.663  0.05%  32.4    4s
*  384   260             136    675207.72380 674842.663  0.05%  32.4    4s

Cutting planes:
  Gomory: 10
  Implied bound: 363
  MIR: 88
  Flow cover: 160
  RLT: 5

Explored 412 nodes (36596 simplex iterations) in 4.64 seconds (5.76 work units)
Thread count was 4 (of 128 available processors)

Solution count 2: 675208 675208 

Optimal solution found (tolerance 1.00e-03)
Warning: max constraint violation (5.4590e-07) exceeds tolerance
Best objective 6.752077238016e+05, best bound 6.748426628030e+05, gap 0.0541%
